p cnf 42 86
-9 -42 9 42 0
-39 42 39 0
-39 -42 42 39 0
-9 -39 9 42 39 5<  0
-39 42 39 0
-9 9 39 0
-9 9 .1#!# 0
-9 9 39 5 0
-9 -39 -42 9 42 39 0
-9 9 39 =# 0
-39 -42 -9 9 42 39 0
 9 42 #?".5+9 3$(#-3 0
-9 9 42 39 0
-39 -9 9 39 5? 0
-9 9 0
-42 9 42 39 0
-9 9 0
-42 42 39 <**1 0
 39 60&?&?62(8+:>3. 0
-39 9 39 0
-42 9 42 /87$,("8>&!(25;,+?, 0
-42 9 42 ,"(+'!,<5??>3,$* 0
-42 42 39 1,%>9-5/,*23#< 0
-42 -9 9 42 0
-42 9 42 39 0


 42 39 0

-9 -39 9 39 0

-42 -39 42 39 *2;;3%97"+$>?*8 0
 42 39 0
-39 -9 -42 9 42 39 0
-39 39 4%=%4 7)'8!) 0
-42 9 42 0
 9 42 39 ?<9#(<4:+1#>)<& =#.: 0

-39 -9 9 42 39 0
-39 39 0
 9 42 39 0
-42 9 42 0&)"37 :; 0

-42 9 42 .0%2* 0
-9 -42 -39 9 42 39 6414!$9 0
-39 39 1#%*'*<?$; 0
 39 3&6?5* 3'? 0
-9 9 0
 42 $'%?(+':?"1$ ): 0
-42 9 42 39 0
-9 -39 9 39 ;?0 0
-9 -42 -39 9 42 39 7?()5%!=3: 0
-39 39 '"4##>:77'!% 0
 42 0
-9 9 5)005%) 0
-9 9 2 0
-42 -9 9 42 39 0
-42 42 0
-9 9 42 39 0
-9 9 0

-39 9 39 $4; 0
 9 39 ."#,#8;*':=1 0
 42 39 0
-39 -9 9 39 <>$,#/%7<3&,!>;&& <? 0
 9 3;9#+*1=#)?)/04=. 0
 9 42 39 0
-42 9 42 0
-42 42 &:?51.-6-,5:" 0
-42 -39 -9 9 42 39 0
-42 -39 -9 9 42 39 0
-9 9 0
 42 >&9. 0
